# Solution for model F-JSSP-SDST
# Objective value = 1.5866999987369796e+04
B0(13) 0
B1(19) 0
B2(25) 1
B3(24) 0
B4(21) 0
B5(28) 1
B6(24) 1
B7(33) 0
B8(28) 0
B9(26) 1
B10(27) 0
B11(13) 1
B12(23) 0
B13(23) 0
B14(20) 1
B15(32) 0
B16(30) 1
B17(30) 0
B18(30) 0
B19(28) 1
B20(12) 1
B21(20) 0
B22(29) 1
B23(25) 0
B24(23) 0
B25(24) 0
B26(33) 1
B27(27) 0
B28(26) 0
B29(27) 1
B30(12) 0
B31(20) 1
B32(24) 0
B33(30) 1
B34(25) 0
B35(27) 1
B36(29) 0
B37(26) 1
B38(18) 0
B39(24) 0
B40(12) 1
B41(31) 0
B42(23) 1
B43(31) 0
B44(32) 0
B45(27) 0
B46(19) 1
B47(21) 1
B48(26) 0
B49(22) 0
B50(24) 0
B51(22) 1
B52(22) 0
B53(24) 1
B54(31) 0
B55(32) 1
B56(29) 0
B57(29) 0
B58(19) 0
B59(28) 1
B60(23) 0
B61(21) 1
B62(24) 1
B63(29) 0
B64(31) 1
B65(30) 0
B66(30) 0
B67(28) 0
B68(28) 1
B69(24) 0
B70(24) 1
B71(26) 1
B72(32) 0
B73(33) 1
B74(27) 0
B75(30) 0
B76(28) 0
B77(24) 1
B78(2) 0
B79(2) 0
B80(2) 0
B81(2) 0
B82(2) 1
B83(2) 0
B84(2) 0
B85(2) 0
B86(2) 0
B87(2) 0
B88(2) 0
B89(2) 0
B90(2) 0
B91(2) 1
B92(2) 0
B93(2) 0
B94(2) 0
B95(2) 0
B96(2) 0
B97(2) 0
B98(2) 0
B99(2) 1
B100(2) 0
B101(2) 0
B102(2) 0
B103(2) 0
B104(2) 0
B105(2) 0
B106(2) 0
B107(2) 0
B108(2) 0
B109(2) 0
B110(2) 0
B111(2) 1
B112(2) 0
B113(2) 0
B114(2) 0
B115(2) 0
B116(2) 0
B117(2) 0
B118(2) 0
B119(2) 0
B120(2) 0
B121(2) 0
B122(2) 0
B123(2) 0
B124(2) 0
B125(2) 0
B126(2) 0
B127(2) 0
B128(2) 0
B129(2) 0
B130(2) 0
B131(2) 0
B132(2) 0
B133(2) 0
B134(2) 0
B135(2) 0
B136(2) 0
B137(2) 0
B138(2) 1
B139(2) 1
B140(2) 0
B141(2) 0
B142(2) 0
B143(2) 1
B144(2) 0
B145(2) 0
B146(2) 1
B147(2) 0
B148(2) 0
B149(2) 1
B150(2) 0
B151(2) 0
B152(2) 0
B153(2) 1
B154(2) 0
B155(2) 0
B156(2) 1
B157(2) 0
B158(2) 0
B159(2) 0
B160(2) 0
B161(2) 0
B162(2) 0
B163(2) 1
B164(2) 0
B165(2) 0
B166(2) 0
B167(2) 0
B168(2) 0
B169(2) 1
B170(2) 0
B171(2) 0
B172(2) 0
B173(2) 0
B174(2) 1
B175(2) 1
B176(2) 0
B177(2) 0
B178(2) 0
B179(2) 0
B180(2) 0
B181(2) 0
B182(2) 0
B183(2) 1
B184(2) 0
B185(2) 0
B186(2) 0
B187(2) 1
B188(2) 0
B189(2) 0
B190(2) 0
B191(2) 0
B192(2) 1
B193(2) 1
B194(2) 0
B195(2) 0
B196(2) 1
B197(2) 0
B198(2) 0
B199(2) 0
B200(2) 1
B201(2) 0
B202(2) 0
B203(2) 0
B204(2) 1
B205(2) 0
B206(2) 0
B207(2) 0
B208(2) 0
B209(2) 0
B210(2) 0
B211(2) 0
B212(2) 0
B213(2) 0
B214(2) 1
B215(2) 0
B216(2) 1
B217(2) 0
B218(2) 0
B219(2) 0
B220(2) 1
B221(2) 0
B222(2) 0
B223(2) 1
B224(2) 0
B225(2) 0
B226(2) 0
B227(2) 1
B228(2) 0
B229(2) 0
B230(2) 0
B231(2) 0
B232(2) 0
B233(2) 0
B234(2) 0
B235(2) 0
B236(2) 0
B237(2) 0
B238(2) 0
B239(2) 0
B240(2) 1
B241(2) 0
B242(2) 0
B243(2) 0
B244(2) 0
B245(2) 1
B246(2) 1
B247(2) 0
B248(2) 0
B249(2) 0
B250(2) 0
B251(2) 1
B252(2) 1
B253(2) 0
B254(2) 0
B255(2) 1
B256(2) 0
B257(2) 0
B258(2) 0
B259(2) 0
B260(2) 0
B261(2) 0
B262(2) 1
B263(2) 1
B264(2) 0
B265(2) 1
B266(2) 0
B267(2) 1
B268(2) 0
B269(2) 0
B270(2) 0
B271(2) 1
B272(2) 1
B273(2) 0
B274(2) 0
B275(2) 0
B276(2) 0
B277(2) 1
B278(2) 0
B279(2) 0
B280(2) 0
B281(2) 0
B282(2) 0
B283(2) 0
B284(2) 0
B285(2) 0
B286(2) 1
B287(2) 0
B288(2) 0
B289(2) 1
B290(2) 0
B291(2) 0
B292(2) 0
B293(2) 0
B294(2) 0
B295(2) 1
B296(2) 1
B297(2) 1
B298(2) 0
B299(2) 0
B300(2) 0
B301(2) 0
B302(2) 0
B303(2) 1
B304(2) 0
B305(2) 0
B306(2) 0
B307(2) 0
B308(2) 0
B309(2) 0
B310(2) 0
B311(2) 0
B312(2) 0
B313(2) 0
B314(2) 0
B315(2) 0
B316(2) 0
B317(2) 0
B318(2) 1
B319(2) 0
B320(2) 0
B321(2) 0
B322(2) 0
B323(2) 1
B324(2) 0
B325(2) 0
B326(2) 0
B327(2) 0
B328(2) 0
B329(2) 0
B330(2) 0
B331(2) 1
B332(2) 1
B333(2) 1
B334(2) 0
B335(2) 0
B336(2) 0
B337(2) 0
B338(2) 0
B339(2) 0
B340(2) 0
B341(2) 0
B342(2) 1
B343(2) 0
B344(2) 0
B345(2) 0
B346(2) 0
B347(2) 0
B348(2) 0
B349(2) 1
B350(2) 0
B351(2) 0
B352(2) 0
B353(2) 0
B354(2) 0
B355(2) 0
B356(2) 0
B357(2) 0
B358(2) 0
B359(2) 0
B360(2) 0
B361(2) 0
B362(2) 0
B363(2) 0
B364(2) 0
B365(2) 0
B366(2) 0
B367(2) 0
B368(2) 0
B369(2) 0
B370(2) 0
B371(2) 0
B372(2) 0
B373(2) 1
B374(2) 0
B375(2) 0
B376(2) 0
B377(2) 0
B378(2) 0
B379(2) 0
B380(2) 0
B381(2) 0
B382(2) 0
B383(2) 0
B384(2) 0
B385(2) 0
B386(2) 0
B387(2) 1
B388(2) 1
B389(2) 0
B390(2) 0
B391(2) 0
B392(2) 1
B393(2) 1
B394(2) 0
B395(2) 0
B396(2) 0
B397(2) 1
B398(2) 0
B399(2) 1
B400(2) 0
B401(2) 0
B402(2) 0
B403(2) 1
B404(2) 1
B405(2) 0
B406(2) 1
B407(2) 1
B408(2) 0
B409(2) 1
B410(2) 1
B411(2) 0
B412(2) 0
B413(2) 0
B414(2) 1
B415(2) 1
B416(2) 0
B417(2) 0
B418(2) 0
B419(2) 1
B420(2) 1
B421(2) 0
B422(2) 0
B423(2) 0
B424(2) 0
B425(2) 0
B426(2) 0
B427(2) 0
B428(2) 1
B429(2) 1
B430(2) 0
B431(2) 1
B432(2) 0
B433(2) 1
B434(2) 0
B435(2) 0
B436(2) 1
B437(2) 1
B438(2) 0
B439(2) 0
B440(2) 0
B441(2) 0
B442(2) 0
B443(2) 0
B444(2) 1
B445(2) 1
B446(2) 0
B447(2) 1
B448(2) 0
B449(2) 0
B450(2) 0
B451(2) 1
B452(2) 1
B453(2) 0
B454(2) 1
B455(2) 0
B456(2) 0
B457(2) 0
B458(2) 0
B459(2) 0
B460(2) 0
B461(2) 0
B462(2) 0
B463(2) 0
B464(2) 0
B465(2) 0
B466(2) 0
B467(2) 0
B468(2) 0
B469(2) 0
B470(2) 0
B471(2) 0
B472(2) 0
B473(2) 0
B474(2) 0
C475(13) 0
C476(19) 0
C477(25) 0
C478(26) 0
C479(22) 0
C480(30) 9.9999999999999773e+01
C481(26) 2.4999999911610044e+02
C482(36) 0
C483(30) 0
C484(27) 4.6799999925234806e+02
C485(29) 0
C486(13) 2.4199999999999829e+02
C487(23) 0
C488(24) 0
C489(22) 4.5599999999999761e+02
C490(33) 0
C491(31) 5.7299999918142214e+02
C492(31) 0
C493(32) 0
C494(30) 691.999999252348
C495(12) 1.4399999999999878e+02
C496(20) 0
C497(30) 2.4199999925736182e+02
C498(26) 0
C499(24) 0
C500(25) 0
C501(35) 4.1199999999999363e+02
C502(29) 0
C503(27) 0
C504(29) 8.5699999925228076e+02
C505(12) 0
C506(20) 0
C507(25) 0
C508(31) 6.4999999999999318e+01
C509(26) 0
C510(28) 2.3799999999999113e+02
C511(31) 0
C512(27) 3.8699999999999068e+02
C513(18) 0
C514(24) 0
C515(12) 0
C516(32) 0
C517(24) 1.6899999916553497e+02
C518(32) 0
C519(33) 0
C520(29) 0
C521(21) 2.5999999999999886e+02
C522(23) 4.1499999911610030e+02
C523(27) 0
C524(22) 0
C525(24) 0
C526(22) 0
C527(24) 0
C528(26) 1.5399999999999636e+02
C529(34) 0
C530(33) 2.7699999999999818e+02
C531(31) 0
C532(31) 0
C533(21) 0
C534(29) 4.0199999925236182e+02
C535(23) 0
C536(21) 8.6999999999999233e+01
C537(25) 2.9199999923917039e+02
C538(31) 0
C539(32) 5.2899999927963347e+02
C540(32) 0
C541(32) 0
C542(30) 0
C543(30) 6.8799999927963563e+02
C544(24) 0
C545(24) 4.2699999923917062e+02
C546(27) 6.8399999912360920e+02
C547(33) 0
C548(35) 9.0799999912359169e+02
C549(29) 0
C550(33) 0
C551(30) 0
C552(26) 1.0529999992391686e+03
C553(1) 1.5866999987369796e+04
